c case145 in MATPOWER https://matpower.org
p edge 145 422
e 1 2
e 1 3
e 1 4
e 1 5
e 1 6
e 1 7
e 1 8
e 1 9
e 1 10
e 1 11
e 1 12
e 1 13
e 1 14
e 1 15
e 1 16
e 3 4
e 3 5
e 3 6
e 3 7
e 3 8
e 4 5
e 4 6
e 4 7
e 4 8
e 5 6
e 5 7
e 5 8
e 5 9
e 5 10
e 5 11
e 6 7
e 6 8
e 6 9
e 6 10
e 6 11
e 6 13
e 6 14
e 6 15
e 6 16
e 6 17
e 7 8
e 7 9
e 7 10
e 7 11
e 7 13
e 7 14
e 7 15
e 7 16
e 7 17
e 8 10
e 8 17
e 8 13
e 8 15
e 8 11
e 8 16
e 8 127
e 8 129
e 8 132
e 8 138
e 8 139
e 8 140
e 8 141
e 9 10
e 9 12
e 9 13
e 9 14
e 10 11
e 10 12
e 10 17
e 10 13
e 10 14
e 10 15
e 10 18
e 10 19
e 10 20
e 10 21
e 10 22
e 11 17
e 11 13
e 11 14
e 11 15
e 11 18
e 11 19
e 11 16
e 11 31
e 11 44
e 11 45
e 11 46
e 11 48
e 11 49
e 12 13
e 12 14
e 12 19
e 12 21
e 12 22
e 12 23
e 13 17
e 13 14
e 13 15
e 13 16
e 13 18
e 13 19
e 13 20
e 13 21
e 14 15
e 14 18
e 14 19
e 14 22
e 14 23
e 14 24
e 14 20
e 14 21
e 14 25
e 14 28
e 14 29
e 14 30
e 15 17
e 15 16
e 15 18
e 15 19
e 16 31
e 16 44
e 16 45
e 16 49
e 16 46
e 16 48
e 16 50
e 18 19
e 19 20
e 19 21
e 19 25
e 19 28
e 19 29
e 19 30
e 20 21
e 20 25
e 20 28
e 20 29
e 20 30
e 20 31
e 20 32
e 21 22
e 21 23
e 21 24
e 21 28
e 21 29
e 21 30
e 21 25
e 21 33
e 22 23
e 22 24
e 22 25
e 23 24
e 23 25
e 23 26
e 23 27
e 24 25
e 24 26
e 24 27
e 25 27
e 25 28
e 25 29
e 25 30
e 25 33
e 25 34
e 26 27
e 28 29
e 28 30
e 29 30
e 29 31
e 30 31
e 30 32
e 31 32
e 31 44
e 31 45
e 31 46
e 31 47
e 31 48
e 33 34
e 33 35
e 33 36
e 34 35
e 34 36
e 34 37
e 35 36
e 35 37
e 35 38
e 36 37
e 36 38
e 36 39
e 36 40
e 36 41
e 36 42
e 37 38
e 37 39
e 37 40
e 37 41
e 37 42
e 38 39
e 38 40
e 38 41
e 38 42
e 38 43
e 39 40
e 39 41
e 40 41
e 40 42
e 41 42
e 41 43
e 42 43
e 42 66
e 42 70
e 42 72
e 42 78
e 42 79
e 42 80
e 42 81
e 42 83
e 42 84
e 42 85
e 42 86
e 44 45
e 44 46
e 44 47
e 44 48
e 44 49
e 45 46
e 45 47
e 45 48
e 45 49
e 46 49
e 46 50
e 46 48
e 46 51
e 46 52
e 46 53
e 47 107
e 47 108
e 47 109
e 47 110
e 47 111
e 47 112
e 48 49
e 48 50
e 48 56
e 48 57
e 48 58
e 48 59
e 48 66
e 48 127
e 48 129
e 48 134
e 48 135
e 48 136
e 48 137
e 52 53
e 53 54
e 53 55
e 55 56
e 55 58
e 55 60
e 55 61
e 55 62
e 56 57
e 58 59
e 60 62
e 60 63
e 60 64
e 61 65
e 61 66
e 61 67
e 61 68
e 62 73
e 62 74
e 62 75
e 62 76
e 62 77
e 65 66
e 66 83
e 66 84
e 66 85
e 66 70
e 66 127
e 66 129
e 66 134
e 66 135
e 66 136
e 66 137
e 67 69
e 67 70
e 67 71
e 67 72
e 68 126
e 68 127
e 68 128
e 68 129
e 68 130
e 69 70
e 70 71
e 70 83
e 70 84
e 70 85
e 70 94
e 70 95
e 70 97
e 72 78
e 72 79
e 72 80
e 72 81
e 72 82
e 74 75
e 75 76
e 75 77
e 75 98
e 75 100
e 75 103
e 75 104
e 75 116
e 75 120
e 75 121
e 75 122
e 75 123
e 82 87
e 82 88
e 82 90
e 82 92
e 82 93
e 83 84
e 83 85
e 84 85
e 85 86
e 86 87
e 86 89
e 87 88
e 89 90
e 89 91
e 90 91
e 92 93
e 94 95
e 94 96
e 95 96
e 96 103
e 96 104
e 96 105
e 96 106
e 97 98
e 97 101
e 97 102
e 98 99
e 99 100
e 101 102
e 101 103
e 102 104
e 105 106
e 105 107
e 106 108
e 107 108
e 109 110
e 111 113
e 111 115
e 112 113
e 112 114
e 114 119
e 114 120
e 115 116
e 115 118
e 116 117
e 117 120
e 118 119
e 123 124
e 124 125
e 126 127
e 127 134
e 127 135
e 127 136
e 127 137
e 127 132
e 127 138
e 127 139
e 127 140
e 127 141
e 127 142
e 127 129
e 127 143
e 127 144
e 128 129
e 129 134
e 129 135
e 129 136
e 129 137
e 129 132
e 129 138
e 129 139
e 129 140
e 129 141
e 129 142
e 129 143
e 129 145
e 130 131
e 130 132
e 130 133
e 131 132
e 132 133
e 132 138
e 132 139
e 132 140
e 132 141
e 132 142
e 134 135
e 134 136
e 134 137
e 135 136
e 135 137
e 136 137
e 138 139
e 138 140
e 138 141
e 139 140
e 139 141
e 140 141
e 140 142
e 141 142
l 105
t 26 125
